c User generated cnf file
p cnf 11 16
7 -10 9 0 
7 6 -8 0 
-9 11 4 0 
9 -8 1 0 
-11 1 8 0 
9 -2 6 0 
-6 8 9 0 
5 8 -2 0 
10 3 -11 0 
-3 3 4 0 
-11 7 5 0 
1 6 -2 0 
10 -5 7 0 
4 9 -5 0 
3 -1 8 0 
-6 10 7 0 
